47 47
4 39
1 26
18 13
8 3
23 33
1 34
22 7
13 46
15 43
15 1
3 11
16 36
14 16
17 2
8 40
18 24
11 12
5 37
10 23
2 18
4 28
1 14
12 29
20 45
9 15
9 31
22 22
13 32
5 9
10 44
7 8
21 47
6 27
16 5
14 17
3 10
20 42
19 25
21 4
7 38
11 30
17 21
2 35
23 19
12 6
6 20
19 41
